78 80
90 17 1
76 68 1
68 14 1
76 22 1
83 38 1
87 29 1
100 40 1
83 39 1
77 69 1
99 1 1
57 77 1
100 17 1
94 13 1
27 90 1
84 27 1
83 56 1
16 78 1
78 31 2
71 38 1
86 8 1
3 90 1
79 38 1
66 10 1
92 21 1
66 14 1
89 7 1
68 45 1
70 46 1
73 4 1
72 38 1
80 41 1
89 82 1
88 6 1
98 30 1
48 99 1
87 30 1
77 19 1
95 83 1
37 78 1
91 40 1
73 44 1
69 49 1
92 49 1
67 12 1
28 27 1
66 42 1
87 45 1
91 30 1
73 16 1
83 46 1
79 39 1
77 40 1
7 16 1
73 12 1
71 96 1
71 12 1
64 78 1
71 40 1
84 63 1
73 45 1
33 2 1
18 85 1
72 44 2
27 94 1
75 38 1
92 30 1
97 35 1
52 97 1
55 85 1
80 43 1
96 38 1
92 65 1
76 17 1
67 3 1
42 97 1
83 15 1
21 67 1
82 30 1
100 100 
100 100 
100 100 
100 100 
100 100 
100 100 
100 100 
100 100 
100 100 
100 100 
100 100 
100 100 
100 100 
100 100 
100 100 
100 100 
100 100 
100 100 
100 100 
100 100 
100 100 
100 100 
100 100 
100 100 
100 100 
100 100 
100 100 
100 100 
100 100 
100 100 
100 100 
100 100 
100 100 
100 100 
100 100 
100 100 
100 100 
100 100 
100 100 
100 100 
100 100 
100 100 
100 100 
100 100 
100 100 
100 100 
100 100 
100 100 
100 100 
100 100 
100 100 
100 100 
100 100 
100 100 
100 100 
100 100 
100 100 
100 100 
100 100 
100 100 
100 100 
100 100 
100 100 
100 100 
100 100 
100 100 
100 100 
100 100 
100 100 
100 100 
100 100 
100 100 
100 100 
100 100 
100 100 
100 100 
100 100 
100 100 
100 100 
100 100 
